 83  7 83 65 62 91 15 78 43 89 16  8 23 91  4
 25 82 44 28 77 89 40  1 70 79 34  3 30 28 93
  7 13 12 34 19 13 90 89 91 94 18 94 43 27 42
 81 54 27 37 33 77 17 49 90 61 88 38 13 96 75
 59  3 96  6 61 73 49 32 81 54 38 20  3  3 12
 46 22 24 83 39 55 57 46 15 67 34 10  9 32 87
 81 92 40 89 76 48 85 77 21 43 73  3 24 44 47
 54 41 64  3 12 74 62 12 13 91 28 34 90 26 75
 33 40 10 33 47 57 27 50  4  1 21 46 42 78 72
 29  2 51  7 59 37 27 86 64 88 29 79 93 80 11
 26 73 81 38 43 84  2 61 78 27 87 74 86 26 25
 67  1  8 84 17 55 41 14 73 77 82 95 97 87 56
 61 20 72 93 69 19 40  1 50 10 64 24 55 87  6
 65 49 48 93 16 22 48 40 48 88 67 52 49 61 66
 99 28 37 49 61 46 92 13 19 62 97 50 38 91 90